sat
(
  (define-fun ProcProv4 () Int
    4)
  (define-fun C2_VM6 () Int
    0)
  (define-fun PriceProv3 () Int
    126)
  (define-fun VM1Type () Int
    182)
  (define-fun VM2Type () Int
    225)
  (define-fun C2_VM2 () Int
    0)
  (define-fun PriceProv6 () Int
    126)
  (define-fun PriceProv1 () Int
    210)
  (define-fun C2_VM3 () Int
    1)
  (define-fun C4_VM1 () Int
    0)
  (define-fun C2_VM7 () Int
    0)
  (define-fun C5_VM5 () Int
    0)
  (define-fun C5_VM6 () Int
    0)
  (define-fun C3_VM7 () Int
    0)
  (define-fun C3_VM3 () Int
    0)
  (define-fun ProcProv3 () Int
    2)
  (define-fun C3_VM5 () Int
    0)
  (define-fun VM6Type () Int
    225)
  (define-fun StorageProv3 () Int
    2000)
  (define-fun C1_VM8 () Int
    0)
  (define-fun C1_VM7 () Int
    1)
  (define-fun StorageProv4 () Int
    2000)
  (define-fun MemProv2 () Int
    3750)
  (define-fun C4_VM8 () Int
    1)
  (define-fun C5_VM4 () Int
    1)
  (define-fun C1_VM1 () Int
    0)
  (define-fun ProcProv8 () Int
    4)
  (define-fun C4_VM3 () Int
    0)
  (define-fun PriceProv5 () Int
    126)
  (define-fun VM5Type () Int
    225)
  (define-fun C3_VM4 () Int
    0)
  (define-fun C2_VM4 () Int
    0)
  (define-fun C5_VM2 () Int
    0)
  (define-fun C2_VM8 () Int
    0)
  (define-fun C1_VM3 () Int
    0)
  (define-fun C4_VM6 () Int
    0)
  (define-fun VM7Type () Int
    225)
  (define-fun PriceProv8 () Int
    210)
  (define-fun C1_VM5 () Int
    0)
  (define-fun C3_VM8 () Int
    0)
  (define-fun C1_VM4 () Int
    0)
  (define-fun C3_VM6 () Int
    0)
  (define-fun C5_VM8 () Int
    0)
  (define-fun ProcProv7 () Int
    2)
  (define-fun C2_VM1 () Int
    0)
  (define-fun C5_VM1 () Int
    1)
  (define-fun MemProv5 () Int
    3750)
  (define-fun PriceProv7 () Int
    126)
  (define-fun MemProv8 () Int
    7500)
  (define-fun StorageProv1 () Int
    2000)
  (define-fun MemProv4 () Int
    7500)
  (define-fun StorageProv8 () Int
    2000)
  (define-fun ProcProv6 () Int
    2)
  (define-fun C2_VM5 () Int
    1)
  (define-fun MemProv3 () Int
    3750)
  (define-fun ProcProv1 () Int
    4)
  (define-fun C4_VM5 () Int
    0)
  (define-fun StorageProv7 () Int
    2000)
  (define-fun PriceProv4 () Int
    210)
  (define-fun ProcProv2 () Int
    2)
  (define-fun StorageProv2 () Int
    2000)
  (define-fun StorageProv6 () Int
    2000)
  (define-fun MemProv1 () Int
    7500)
  (define-fun C3_VM2 () Int
    0)
  (define-fun C3_VM1 () Int
    0)
  (define-fun C5_VM3 () Int
    0)
  (define-fun MemProv7 () Int
    3750)
  (define-fun C5_VM7 () Int
    0)
  (define-fun PriceProv2 () Int
    126)
  (define-fun VM4Type () Int
    182)
  (define-fun ProcProv5 () Int
    2)
  (define-fun StorageProv5 () Int
    2000)
  (define-fun VM3Type () Int
    225)
  (define-fun C1_VM6 () Int
    1)
  (define-fun VM8Type () Int
    182)
  (define-fun MemProv6 () Int
    3750)
  (define-fun C4_VM7 () Int
    0)
  (define-fun C4_VM2 () Int
    0)
  (define-fun C4_VM4 () Int
    0)
  (define-fun C1_VM2 () Int
    1)
)
(objectives
 ( 31)
 ((+ 0
   PriceProv1
   PriceProv2
   PriceProv3
   PriceProv4
   PriceProv5
   PriceProv6
   PriceProv7
   PriceProv8) 1260)
)
(:added-eqs                   85713
 :arith-eq-adapter            81962
 :arith-bound-propagations-lp 355
 :arith-conflicts             51
 :arith-diseq                 101194
 :arith-fixed-eqs             611
 :arith-lower                 133458
 :arith-make-feasible         60760
 :arith-max-columns           375
 :arith-max-rows              26
 :arith-upper                 74259
 :binary-propagations         220137
 :bv-bit2core                 1038
 :bv-dynamic-diseqs           47510
 :bv->core-eq                 735
 :conflicts                   1745
 :decisions                   84391
 :del-clause                  70238
 :final-checks                32
 :max-memory                  65.48
 :maxsat-cores                8
 :memory                      63.68
 :minimized-lits              178
 :mk-bool-var                 169102
 :mk-clause                   72635
 :mk-clause-binary            10928
 :num-allocs                  1119798874
 :num-checks                  42
 :pb-conflicts                6
 :pb-predicates               7
 :pb-propagations             482
 :pb-resolves                 3
 :propagations                240607
 :restarts                    7
 :rlimit-count                5270586
 :time                        0.74
 :total-time                  0.75)
